g3 1 1 0	# problem md4m
 2 0 14 0 0 	# vars, constraints, objectives, ranges, eqns
 0 13 0 0 0 0	# nonlinear constrs, objs; ccons: lin, nonlin, nd, nzlb
 0 0	# network constraints: nonlinear, linear
 0 2 0 	# nonlinear vars in constraints, objectives, both
 0 0 0 1	# linear network variables; functions; arith, flags
 0 0 0 0 0 	# discrete variables: binary, integer, nonlinear (b,c,o)
 0 20 	# nonzeros in Jacobian, obj. gradient
 0 0	# max name lengths: constraints, variables
 0 0 0 0 0	# common exprs: b,c,o,c1,o1
O0 0
o0
o54
5
o43
v0
o2
n3.0
o43
v1
o2
n97.16
o43
o0
o16
o44
o2
n-0.9338640538885487
v1
n1
o2
n69.73
o43
o0
o16
o44
o2
n-3.7966932026944273
v1
n1
o2
n38.43
o43
o0
o16
o44
o2
n-9.797917942437232
v1
n1
n88.10187245449355
O1 0
o5
v0
n-1.0
O2 0
o16
o5
v0
n-2.0
O3 0
o0
o54
4
o2
n3.0
o5
v1
n-1.0
o2
o2
n90.73423147581138
o5
o0
o16
o44
o2
n-0.9338640538885487
v1
n1.0
n-1.0
o44
o2
n-0.9338640538885487
v1
o2
o2
n264.74341702388244
o5
o0
o16
o44
o2
n-3.7966932026944273
v1
n1.0
n-1.0
o44
o2
n-3.7966932026944273
v1
o2
o2
n376.53398652786285
o5
o0
o16
o44
o2
n-9.797917942437232
v1
n1.0
n-1.0
o44
o2
n-9.797917942437232
v1
n-39.55376118918867
O4 0
o54
7
o2
n-3.0
o5
v1
n-2.0
o2
o2
n-1005.1495318726707
o5
o0
o16
o44
o2
n-3.7966932026944273
v1
n1.0
n-1.0
o44
o2
n-3.7966932026944273
v1
o2
o2
n-1005.1495318726707
o5
o0
o16
o44
o2
n-3.7966932026944273
v1
n1.0
n-2.0
o44
o2
n-7.593386405388855
v1
o2
o2
n-84.73343723246317
o5
o0
o16
o44
o2
n-0.9338640538885487
v1
n1.0
n-1.0
o44
o2
n-0.9338640538885487
v1
o2
o2
n-84.73343723246317
o5
o0
o16
o44
o2
n-0.9338640538885487
v1
n1.0
n-2.0
o44
o2
n-1.8677281077770973
v1
o2
o2
n-3689.2491025387667
o5
o0
o16
o44
o2
n-9.797917942437232
v1
n1.0
n-1.0
o44
o2
n-9.797917942437232
v1
o2
o2
n-3689.2491025387667
o5
o0
o16
o44
o2
n-9.797917942437232
v1
n1.0
n-2.0
o44
o2
n-19.595835884874464
v1
O5 0
o54
15
o2
o2
n0.053362183
o5
v0
n4
v1
o2
o2
n2.8527871
v0
o5
v1
n0.3
o2
o2
n-3.8108356
v0
o5
v1
n0.68
o2
o2
n-0.95254215
o5
v0
n2
o5
v1
n0.913
o2
o2
n0.44739021
o5
v0
n3
o5
v1
n0.434
o2
o2
o2
n-2.5194015
v0
o5
v1
n2.33
o44
o16
o5
v0
n2
o2
o2
o2
n-1.2945338
o5
v0
n3
o5
v1
n2.7
o44
o16
o5
v0
n2
o2
o2
o2
n0.43538523
o5
v0
n2
o5
v1
n0.61
o44
o2
n-1.0
v0
o2
o2
o2
n-0.92015738
o5
v0
n2
o5
v1
n2.12
o44
o16
o5
v0
n2
o2
o2
o2
n-0.054299195
o5
v0
n7
o5
v1
n1.121
o44
o2
n-1.0
v0
o2
o2
o2
n4.6112643
v0
o5
v1
n1.13
o44
o0
o2
n-0.81
o5
o0
v0
n-0.977
n2
o2
n-0.526
o5
o0
v1
n-1.34
n2
o2
o2
o2
n-0.7391977
o5
v0
n3
o5
v1
n2.55
o44
o0
o2
n-0.892
o5
o0
v0
n-0.65
n2
o2
n-0.72
o5
o0
v1
n-1.19
n2
o2
o2
o2
n-0.14001997
o5
v0
n2
o5
v1
n2.59
o44
o0
o2
n-0.82
o5
o0
v0
n-1.06
n2
o2
n-0.056
o5
o0
v1
n-1.68
n2
o2
o2
o2
n-1.8085327
o5
v0
n2
o5
v1
n1.07
o44
o0
o2
n-0.847
o5
o0
v0
n-0.659
n2
o2
n-1.3
o5
o0
v1
n-0.86
n2
o2
o2
o2
n-0.58630821
v0
o5
v1
n0.7
o44
o0
o2
n-17.3
o5
o0
v0
n-0.92
n2
o2
n-700.0
o5
o0
v1
n-1.108
n2
O6 0
o54
25
o2
n2.8527871
o5
v1
n0.3
o2
n-3.8108356
o5
v1
n0.68
o2
o2
n1.34217063
o5
v0
n2.0
o5
v1
n0.434
o2
o2
n4.6112643
o5
v1
n1.13
o44
o0
o2
n-0.81
o5
o0
v0
n-0.977
n2.0
o2
n-0.526
o5
o0
v1
n-1.34
n2.0
o2
o2
n0.213448732
v1
o5
v0
n3.0
o2
o2
n-2.5194015
o5
v1
n2.33
o44
o16
o5
v0
n2.0
o2
o2
n-1.9050843
v0
o5
v1
n0.913
o2
o2
n-0.58630821
o5
v1
n0.7
o44
o0
o2
n-700.0
o5
o0
v1
n-1.108
n2.0
o2
n-17.3
o5
o0
v0
n-0.92
n2.0
o2
o2
o2
n2.5890676
o5
v0
n4.0
o5
v1
n2.7
o44
o16
o5
v0
n2.0
o2
o2
o2
n1.84031476
o5
v0
n3.0
o5
v1
n2.12
o44
o16
o5
v0
n2.0
o2
o2
o2
n5.038803
o5
v0
n2.0
o5
v1
n2.33
o44
o16
o5
v0
n2.0
o2
o2
o2
n0.054299195
o5
v0
n7.0
o5
v1
n1.121
o44
o2
n-1.0
v0
o2
o2
o2
n0.87077046
v0
o5
v1
n0.61
o44
o2
n-1.0
v0
o2
o2
o2
n-0.28003994
v0
o5
v1
n2.59
o44
o0
o2
n-0.82
o5
o0
v0
n-1.06
n2.0
o2
n-0.056
o5
o0
v1
n-1.68
n2.0
o2
o2
o2
n-1.84031476
v0
o5
v1
n2.12
o44
o16
o5
v0
n2.0
o2
o2
o2
n-3.8836014
o5
v0
n2.0
o5
v1
n2.7
o44
o16
o5
v0
n2.0
o2
o2
o2
n-2.2175930999999998
o5
v0
n2.0
o5
v1
n2.55
o44
o0
o2
n-0.72
o5
o0
v1
n-1.19
n2.0
o2
n-0.892
o5
o0
v0
n-0.65
n2.0
o2
o2
o2
n-0.380094365
o5
v0
n6.0
o5
v1
n1.121
o44
o2
n-1.0
v0
o2
o2
o2
n-0.43538523
o5
v0
n2.0
o5
v1
n0.61
o44
o2
n-1.0
v0
o2
o2
o2
n-3.6170654
v0
o5
v1
n1.07
o44
o0
o2
n-0.847
o5
o0
v0
n-0.659
n2.0
o2
n-1.3
o5
o0
v1
n-0.86
n2.0
o2
o2
o2
o2
n4.6112643
v0
o5
v1
n1.13
o0
o2
n-1.62
v0
n1.58274
o44
o0
o2
n-0.81
o5
o0
v0
n-0.977
n2.0
o2
n-0.526
o5
o0
v1
n-1.34
n2.0
o2
o2
o2
o2
n-0.14001997
o5
v0
n2.0
o5
v1
n2.59
o0
o2
n-1.64
v0
n1.7384
o44
o0
o2
n-0.82
o5
o0
v0
n-1.06
n2.0
o2
n-0.056
o5
o0
v1
n-1.68
n2.0
o2
o2
o2
o2
n-0.58630821
v0
o5
v1
n0.7
o0
o2
n-34.6
v0
n31.832000000000004
o44
o0
o2
n-700.0
o5
o0
v1
n-1.108
n2.0
o2
n-17.3
o5
o0
v0
n-0.92
n2.0
o2
o2
o2
o2
n-0.7391977
o5
v0
n3.0
o5
v1
n2.55
o0
o2
n-1.784
v0
n1.1596
o44
o0
o2
n-0.72
o5
o0
v1
n-1.19
n2.0
o2
n-0.892
o5
o0
v0
n-0.65
n2.0
o2
o2
o2
o2
n-1.8085327
o5
v0
n2.0
o5
v1
n1.07
o0
o2
n-1.694
v0
n1.116346
o44
o0
o2
n-0.847
o5
o0
v0
n-0.659
n2.0
o2
n-1.3
o5
o0
v1
n-0.86
n2.0
O7 0
o54
41
o2
n-1.9050843
o5
v1
n0.913
o2
o2
n2.68434126
o5
v1
n0.434
v0
o2
o2
n0.640346196
v1
o5
v0
n2.0
o2
o2
n0.87077046
o5
v1
n0.61
o44
o2
n-1.0
v0
o2
o2
n-0.28003994
o5
v1
n2.59
o44
o0
o2
n-0.82
o5
o0
v0
n-1.06
n2.0
o2
n-0.056
o5
o0
v1
n-1.68
n2.0
o2
o2
n-1.84031476
o5
v1
n2.12
o44
o16
o5
v0
n2.0
o2
o2
n-3.6170654
o5
v1
n1.07
o44
o0
o2
n-0.847
o5
o0
v0
n-0.659
n2.0
o2
n-1.3
o5
o0
v1
n-0.86
n2.0
o2
o2
o2
n20.286264066
v0
o5
v1
n0.7
o44
o0
o2
n-700.0
o5
o0
v1
n-1.108
n2.0
o2
n-17.3
o5
o0
v0
n-0.92
n2.0
o2
o2
o2
n20.286264066
o5
v1
n0.7
o0
v0
n-0.92
o44
o0
o2
n-700.0
o5
o0
v1
n-1.108
n2.0
o2
n-17.3
o5
o0
v0
n-0.92
n2.0
o2
o2
o2
n1.3187286968
o5
v1
n2.55
o5
v0
n3.0
o44
o0
o2
n-0.72
o5
o0
v1
n-1.19
n2.0
o2
n-0.892
o5
o0
v0
n-0.65
n2.0
o2
o2
o2
n18.1234732
o5
v1
n2.7
o5
v0
n3.0
o44
o16
o5
v0
n2.0
o2
o2
o2
n4.6112643
o5
v1
n1.13
o0
o2
n-1.62
v0
n1.58274
o44
o0
o2
n-0.81
o5
o0
v0
n-0.977
n2.0
o2
n-0.526
o5
o0
v1
n-1.34
n2.0
o2
o2
o2
n9.2015738
o5
v1
n2.12
o5
v0
n2.0
o44
o16
o5
v0
n2.0
o2
o2
o2
n0.76018873
o5
v1
n1.121
o5
v0
n6.0
o44
o2
n-1.0
v0
o2
o2
o2
n3.0636543938
o5
v1
n1.07
o5
v0
n2.0
o44
o0
o2
n-0.847
o5
o0
v0
n-0.659
n2.0
o2
n-1.3
o5
o0
v1
n-0.86
n2.0
o2
o2
o2
n0.43538523
o5
v1
n0.61
o5
v0
n2.0
o44
o2
n-1.0
v0
o2
o2
o2
n0.22963275079999998
o5
v1
n2.59
o5
v0
n2.0
o44
o0
o2
n-0.82
o5
o0
v0
n-1.06
n2.0
o2
n-0.056
o5
o0
v1
n-1.68
n2.0
o2
o2
o2
n15.116408999999999
o5
v1
n2.33
v0
o44
o16
o5
v0
n2.0
o2
o2
o2
n-5.1781352
o5
v1
n2.7
o5
v0
n5.0
o44
o16
o5
v0
n2.0
o2
o2
o2
n-3.68062952
o5
v1
n2.12
o5
v0
n4.0
o44
o16
o5
v0
n2.0
o2
o2
o2
n-7.7672028
o5
v1
n2.7
v0
o44
o16
o5
v0
n2.0
o2
o2
o2
n-2.28056619
o5
v1
n1.121
o5
v0
n5.0
o44
o2
n-1.0
v0
o2
o2
o2
n-7.470248166000001
v0
o5
v1
n1.13
o44
o0
o2
n-0.81
o5
o0
v0
n-0.977
n2.0
o2
n-0.526
o5
o0
v1
n-1.34
n2.0
o2
o2
o2
n-7.470248166000001
o5
v1
n1.13
o0
v0
n-0.977
o44
o0
o2
n-0.81
o5
o0
v0
n-0.977
n2.0
o2
n-0.526
o5
o0
v1
n-1.34
n2.0
o2
o2
o2
n-10.077606
o5
v1
n2.33
o5
v0
n3.0
o44
o16
o5
v0
n2.0
o2
o2
o2
n-4.4351861999999995
o5
v1
n2.55
v0
o44
o0
o2
n-0.72
o5
o0
v1
n-1.19
n2.0
o2
n-0.892
o5
o0
v0
n-0.65
n2.0
o2
o2
o2
n-0.58630821
o5
v1
n0.7
o0
o2
n-34.6
v0
n31.832000000000004
o44
o0
o2
n-700.0
o5
o0
v1
n-1.108
n2.0
o2
n-17.3
o5
o0
v0
n-0.92
n2.0
o2
o2
o2
n-0.054299195
o5
v1
n1.121
o5
v0
n7.0
o44
o2
n-1.0
v0
o2
o2
o2
n-0.87077046
v0
o5
v1
n0.61
o44
o2
n-1.0
v0
o2
o2
o2
n-0.87077046
o5
v1
n0.61
v0
o44
o2
n-1.0
v0
o2
o2
o2
o2
n6.1273087876
v0
o5
v1
n1.07
o0
v0
n-0.659
o44
o0
o2
n-0.847
o5
o0
v0
n-0.659
n2.0
o2
n-1.3
o5
o0
v1
n-0.86
n2.0
o2
o2
o2
o2
n0.45926550159999996
v0
o5
v1
n2.59
o0
v0
n-1.06
o44
o0
o2
n-0.82
o5
o0
v0
n-1.06
n2.0
o2
n-0.056
o5
o0
v1
n-1.68
n2.0
o2
o2
o2
o2
n3.9561860903999997
o5
v1
n2.55
o5
v0
n2.0
o0
v0
n-0.65
o44
o0
o2
n-0.72
o5
o0
v1
n-1.19
n2.0
o2
n-0.892
o5
o0
v0
n-0.65
n2.0
o2
o2
o2
o2
n-0.28003994
o5
v1
n2.59
v0
o0
o2
n-1.64
v0
n1.7384
o44
o0
o2
n-0.82
o5
o0
v0
n-1.06
n2.0
o2
n-0.056
o5
o0
v1
n-1.68
n2.0
o2
o2
o2
o2
n-2.2175930999999998
o5
v1
n2.55
o5
v0
n2.0
o0
o2
n-1.784
v0
n1.1596
o44
o0
o2
n-0.72
o5
o0
v1
n-1.19
n2.0
o2
n-0.892
o5
o0
v0
n-0.65
n2.0
o2
o2
o2
o2
n-3.6170654
o5
v1
n1.07
v0
o0
o2
n-1.694
v0
n1.116346
o44
o0
o2
n-0.847
o5
o0
v0
n-0.659
n2.0
o2
n-1.3
o5
o0
v1
n-0.86
n2.0
o2
o2
o2
o2
o2
n20.286264066
v0
o5
v1
n0.7
o0
v0
n-0.92
o0
o2
n-34.6
v0
n31.832000000000004
o44
o0
o2
n-700.0
o5
o0
v1
n-1.108
n2.0
o2
n-17.3
o5
o0
v0
n-0.92
n2.0
o2
o2
o2
o2
o2
n1.3187286968
o5
v1
n2.55
o5
v0
n3.0
o0
v0
n-0.65
o0
o2
n-1.784
v0
n1.1596
o44
o0
o2
n-0.72
o5
o0
v1
n-1.19
n2.0
o2
n-0.892
o5
o0
v0
n-0.65
n2.0
o2
o2
o2
o2
o2
n3.0636543938
o5
v1
n1.07
o5
v0
n2.0
o0
v0
n-0.659
o0
o2
n-1.694
v0
n1.116346
o44
o0
o2
n-0.847
o5
o0
v0
n-0.659
n2.0
o2
n-1.3
o5
o0
v1
n-0.86
n2.0
o2
o2
o2
o2
o2
n0.22963275079999998
o5
v1
n2.59
o5
v0
n2.0
o0
v0
n-1.06
o0
o2
n-1.64
v0
n1.7384
o44
o0
o2
n-0.82
o5
o0
v0
n-1.06
n2.0
o2
n-0.056
o5
o0
v1
n-1.68
n2.0
o2
o2
o2
o2
o2
n-7.470248166000001
v0
o5
v1
n1.13
o0
v0
n-0.977
o0
o2
n-1.62
v0
n1.58274
o44
o0
o2
n-0.81
o5
o0
v0
n-0.977
n2.0
o2
n-0.526
o5
o0
v1
n-1.34
n2.0
O8 0
o54
20
o2
n0.053362183
o5
v0
n4.0
o2
o2
n0.19416735114
o5
v0
n3.0
o5
v1
n-0.5660000000000001
o2
o2
n0.85583613
v0
o5
v1
n-0.7
o2
o2
n-0.86967098295
o5
v0
n2.0
o5
v1
n-0.08699999999999997
o2
o2
n-2.591368208
v0
o5
v1
n-0.31999999999999995
o2
o2
o2
n0.2655849903
o5
v0
n2.0
o5
v1
n-0.39
o44
o2
n-1.0
v0
o2
o2
o2
n5.210728659
v0
o5
v1
n0.1299999999999999
o44
o0
o2
n-0.81
o5
o0
v0
n-0.977
n2.0
o2
n-0.526
o5
o0
v1
n-1.34
n2.0
o2
o2
o2
n-3.4952412600000002
o5
v0
n3.0
o5
v1
n1.7000000000000002
o44
o16
o5
v0
n2.0
o2
o2
o2
n-1.935129989
o5
v0
n2.0
o5
v1
n0.07000000000000006
o44
o0
o2
n-0.847
o5
o0
v0
n-0.659
n2.0
o2
n-1.3
o5
o0
v1
n-0.86
n2.0
o2
o2
o2
n-0.3626517223
o5
v0
n2.0
o5
v1
n1.5899999999999999
o44
o0
o2
n-0.82
o5
o0
v0
n-1.06
n2.0
o2
n-0.056
o5
o0
v1
n-1.68
n2.0
o2
o2
o2
n-0.060869397595
o5
v0
n7.0
o5
v1
n0.121
o44
o2
n-1.0
v0
o2
o2
o2
n-1.9507336456000002
o5
v0
n2.0
o5
v1
n1.12
o44
o16
o5
v0
n2.0
o2
o2
o2
n-5.8702054949999996
v0
o5
v1
n1.33
o44
o16
o5
v0
n2.0
o2
o2
o2
n-0.410415747
v0
o5
v1
n-0.30000000000000004
o44
o0
o2
n-700.0
o5
o0
v1
n-1.108
n2.0
o2
n-17.3
o5
o0
v0
n-0.92
n2.0
o2
o2
o2
n-1.8849541349999999
o5
v0
n3.0
o5
v1
n1.5499999999999998
o44
o0
o2
n-0.72
o5
o0
v1
n-1.19
n2.0
o2
n-0.892
o5
o0
v0
n-0.65
n2.0
o2
o2
o2
o2
n4.6112643
v0
o5
v1
n1.13
o0
o2
n-1.052
v1
n1.40968
o44
o0
o2
n-0.81
o5
o0
v0
n-0.977
n2.0
o2
n-0.526
o5
o0
v1
n-1.34
n2.0
o2
o2
o2
o2
n-0.14001997
o5
v0
n2.0
o5
v1
n2.59
o0
o2
n-0.112
v1
n0.18816
o44
o0
o2
n-0.82
o5
o0
v0
n-1.06
n2.0
o2
n-0.056
o5
o0
v1
n-1.68
n2.0
o2
o2
o2
o2
n-0.58630821
v0
o5
v1
n0.7
o0
o2
n-1400.0
v1
n1551.2
o44
o0
o2
n-700.0
o5
o0
v1
n-1.108
n2.0
o2
n-17.3
o5
o0
v0
n-0.92
n2.0
o2
o2
o2
o2
n-0.7391977
o5
v0
n3.0
o5
v1
n2.55
o0
o2
n-1.44
v1
n1.7135999999999998
o44
o0
o2
n-0.72
o5
o0
v1
n-1.19
n2.0
o2
n-0.892
o5
o0
v0
n-0.65
n2.0
o2
o2
o2
o2
n-1.8085327
o5
v0
n2.0
o5
v1
n1.07
o0
o2
n-2.6
v1
n2.236
o44
o0
o2
n-0.847
o5
o0
v0
n-0.659
n2.0
o2
n-1.3
o5
o0
v1
n-0.86
n2.0
O9 0
o54
34
o2
o2
n0.07566137551664998
o5
v0
n2.0
o5
v1
n-1.087
o2
o2
n0.8292378265599999
v0
o5
v1
n-1.3199999999999998
o2
o2
n-0.599085291
v0
o5
v1
n-1.7
o2
o2
n-0.10989872074524001
o5
v0
n3.0
o5
v1
n-1.566
o2
o2
o2
n820.831494
v0
o5
v1
n0.7
o44
o0
o2
n-700.0
o5
o0
v1
n-1.108
n2.0
o2
n-17.3
o5
o0
v0
n-0.92
n2.0
o2
o2
o2
n0.01568223664
o5
v0
n2.0
o5
v1
n2.59
o44
o0
o2
n-0.82
o5
o0
v0
n-1.06
n2.0
o2
n-0.056
o5
o0
v1
n-1.68
n2.0
o2
o2
o2
n4.70218502
o5
v0
n2.0
o5
v1
n1.07
o44
o0
o2
n-0.847
o5
o0
v0
n-0.659
n2.0
o2
n-1.3
o5
o0
v1
n-0.86
n2.0
o2
o2
o2
n0.6773947256699995
v0
o5
v1
n-0.8700000000000001
o44
o0
o2
n-0.81
o5
o0
v0
n-0.977
n2.0
o2
n-0.526
o5
o0
v1
n-1.34
n2.0
o2
o2
o2
n1.0644446879999998
o5
v0
n3.0
o5
v1
n2.55
o44
o0
o2
n-0.72
o5
o0
v1
n-1.19
n2.0
o2
n-0.892
o5
o0
v0
n-0.65
n2.0
o2
o2
o2
n0.12312472410000001
v0
o5
v1
n-1.3
o44
o0
o2
n-700.0
o5
o0
v1
n-1.108
n2.0
o2
n-17.3
o5
o0
v0
n-0.92
n2.0
o2
o2
o2
n-2.184821683072
o5
v0
n2.0
o5
v1
n0.1200000000000001
o44
o16
o5
v0
n2.0
o2
o2
o2
n-0.5766162384569999
o5
v0
n2.0
o5
v1
n0.5899999999999999
o44
o0
o2
n-0.82
o5
o0
v0
n-1.06
n2.0
o2
n-0.056
o5
o0
v1
n-1.68
n2.0
o2
o2
o2
n-4.851050043600001
v0
o5
v1
n1.13
o44
o0
o2
n-0.81
o5
o0
v0
n-0.977
n2.0
o2
n-0.526
o5
o0
v1
n-1.34
n2.0
o2
o2
o2
n-5.941910142000001
o5
v0
n3.0
o5
v1
n0.7000000000000002
o44
o16
o5
v0
n2.0
o2
o2
o2
n-7.80737330835
v0
o5
v1
n0.33000000000000007
o44
o16
o5
v0
n2.0
o2
o2
o2
n-0.13545909923000013
o5
v0
n2.0
o5
v1
n-0.9299999999999999
o44
o0
o2
n-0.847
o5
o0
v0
n-0.659
n2.0
o2
n-1.3
o5
o0
v1
n-0.86
n2.0
o2
o2
o2
n-2.9216789092499993
o5
v0
n3.0
o5
v1
n0.5499999999999998
o44
o0
o2
n-0.72
o5
o0
v1
n-1.19
n2.0
o2
n-0.892
o5
o0
v0
n-0.65
n2.0
o2
o2
o2
n-0.103578146217
o5
v0
n2.0
o5
v1
n-1.3900000000000001
o44
o2
n-1.0
v0
o2
o2
o2
n-0.007365197108995
o5
v0
n7.0
o5
v1
n-0.879
o44
o2
n-1.0
v0
o2
o2
o2
o2
n0.0406169928976
o5
v0
n2.0
o5
v1
n1.5899999999999999
o0
v1
n-1.68
o44
o0
o2
n-0.82
o5
o0
v0
n-1.06
n2.0
o2
n-0.056
o5
o0
v1
n-1.68
n2.0
o2
o2
o2
o2
n2.7143339544
o5
v0
n3.0
o5
v1
n1.5499999999999998
o0
v1
n-1.19
o44
o0
o2
n-0.72
o5
o0
v1
n-1.19
n2.0
o2
n-0.892
o5
o0
v0
n-0.65
n2.0
o2
o2
o2
o2
n574.5820458
v0
o5
v1
n-0.30000000000000004
o0
v1
n-1.108
o44
o0
o2
n-700.0
o5
o0
v1
n-1.108
n2.0
o2
n-17.3
o5
o0
v0
n-0.92
n2.0
o2
o2
o2
o2
n5.0313379714
o5
v0
n2.0
o5
v1
n0.07000000000000006
o0
v1
n-0.86
o44
o0
o2
n-0.847
o5
o0
v0
n-0.659
n2.0
o2
n-1.3
o5
o0
v1
n-0.86
n2.0
o2
o2
o2
o2
n5.210728659
v0
o5
v1
n0.1299999999999999
o0
o2
n-1.052
v1
n1.40968
o44
o0
o2
n-0.81
o5
o0
v0
n-0.977
n2.0
o2
n-0.526
o5
o0
v1
n-1.34
n2.0
o2
o2
o2
o2
n-1.935129989
o5
v0
n2.0
o5
v1
n0.07000000000000006
o0
o2
n-2.6
v1
n2.236
o44
o0
o2
n-0.847
o5
o0
v0
n-0.659
n2.0
o2
n-1.3
o5
o0
v1
n-0.86
n2.0
o2
o2
o2
o2
n-5.481686549268
v0
o5
v1
n0.1299999999999999
o0
v1
n-1.34
o44
o0
o2
n-0.81
o5
o0
v0
n-0.977
n2.0
o2
n-0.526
o5
o0
v1
n-1.34
n2.0
o2
o2
o2
o2
n-0.3626517223
o5
v0
n2.0
o5
v1
n1.5899999999999999
o0
o2
n-0.112
v1
n0.18816
o44
o0
o2
n-0.82
o5
o0
v0
n-1.06
n2.0
o2
n-0.056
o5
o0
v1
n-1.68
n2.0
o2
o2
o2
o2
n-0.410415747
v0
o5
v1
n-0.30000000000000004
o0
o2
n-1400.0
v1
n1551.2
o44
o0
o2
n-700.0
o5
o0
v1
n-1.108
n2.0
o2
n-17.3
o5
o0
v0
n-0.92
n2.0
o2
o2
o2
o2
n-1.8849541349999999
o5
v0
n3.0
o5
v1
n1.5499999999999998
o0
o2
n-1.44
v1
n1.7135999999999998
o44
o0
o2
n-0.72
o5
o0
v1
n-1.19
n2.0
o2
n-0.892
o5
o0
v0
n-0.65
n2.0
o2
o2
o2
o2
o2
n820.831494
v0
o5
v1
n0.7
o0
v1
n-1.108
o0
o2
n-1400.0
v1
n1551.2
o44
o0
o2
n-700.0
o5
o0
v1
n-1.108
n2.0
o2
n-17.3
o5
o0
v0
n-0.92
n2.0
o2
o2
o2
o2
o2
n0.01568223664
o5
v0
n2.0
o5
v1
n2.59
o0
v1
n-1.68
o0
o2
n-0.112
v1
n0.18816
o44
o0
o2
n-0.82
o5
o0
v0
n-1.06
n2.0
o2
n-0.056
o5
o0
v1
n-1.68
n2.0
o2
o2
o2
o2
o2
n4.70218502
o5
v0
n2.0
o5
v1
n1.07
o0
v1
n-0.86
o0
o2
n-2.6
v1
n2.236
o44
o0
o2
n-0.847
o5
o0
v0
n-0.659
n2.0
o2
n-1.3
o5
o0
v1
n-0.86
n2.0
o2
o2
o2
o2
o2
n1.0644446879999998
o5
v0
n3.0
o5
v1
n2.55
o0
v1
n-1.19
o0
o2
n-1.44
v1
n1.7135999999999998
o44
o0
o2
n-0.72
o5
o0
v1
n-1.19
n2.0
o2
n-0.892
o5
o0
v0
n-0.65
n2.0
o2
o2
o2
o2
o2
n-4.851050043600001
v0
o5
v1
n1.13
o0
v1
n-1.34
o0
o2
n-1.052
v1
n1.40968
o44
o0
o2
n-0.81
o5
o0
v0
n-0.977
n2.0
o2
n-0.526
o5
o0
v1
n-1.34
n2.0
O10 0
o54
35
o2
n0.213448732
o5
v0
n3.0
o2
n0.85583613
o5
v1
n-0.7
o2
n-2.591368208
o5
v1
n-0.31999999999999995
o2
o2
n0.58250205342
o5
v1
n-0.5660000000000001
o5
v0
n2.0
o2
o2
n5.210728659
o5
v1
n0.1299999999999999
o44
o0
o2
n-0.81
o5
o0
v0
n-0.977
n2.0
o2
n-0.526
o5
o0
v1
n-1.34
n2.0
o2
o2
n-1.7393419659
v0
o5
v1
n-0.08699999999999997
o2
o2
n-5.8702054949999996
o5
v1
n1.33
o44
o16
o5
v0
n2.0
o2
o2
n-0.410415747
o5
v1
n-0.30000000000000004
o44
o0
o2
n-700.0
o5
o0
v1
n-1.108
n2.0
o2
n-17.3
o5
o0
v0
n-0.92
n2.0
o2
o2
o2
n6.9904825200000005
o5
v1
n1.7000000000000002
o5
v0
n4.0
o44
o16
o5
v0
n2.0
o2
o2
o2
n820.831494
o5
v1
n0.7
o0
v1
n-1.108
o44
o0
o2
n-700.0
o5
o0
v1
n-1.108
n2.0
o2
n-17.3
o5
o0
v0
n-0.92
n2.0
o2
o2
o2
n0.060869397595
o5
v1
n0.121
o5
v0
n7.0
o44
o2
n-1.0
v0
o2
o2
o2
n3.9014672912000004
o5
v1
n1.12
o5
v0
n3.0
o44
o16
o5
v0
n2.0
o2
o2
o2
n0.5311699806
v0
o5
v1
n-0.39
o44
o2
n-1.0
v0
o2
o2
o2
n11.740410989999999
o5
v1
n1.33
o5
v0
n2.0
o44
o16
o5
v0
n2.0
o2
o2
o2
n-0.426085783165
o5
v1
n0.121
o5
v0
n6.0
o44
o2
n-1.0
v0
o2
o2
o2
n-10.48572378
o5
v1
n1.7000000000000002
o5
v0
n2.0
o44
o16
o5
v0
n2.0
o2
o2
o2
n-3.870259978
v0
o5
v1
n0.07000000000000006
o44
o0
o2
n-0.847
o5
o0
v0
n-0.659
n2.0
o2
n-1.3
o5
o0
v1
n-0.86
n2.0
o2
o2
o2
n-4.851050043600001
o5
v1
n1.13
o0
v1
n-1.34
o44
o0
o2
n-0.81
o5
o0
v0
n-0.977
n2.0
o2
n-0.526
o5
o0
v1
n-1.34
n2.0
o2
o2
o2
n-5.654862404999999
o5
v1
n1.5499999999999998
o5
v0
n2.0
o44
o0
o2
n-0.72
o5
o0
v1
n-1.19
n2.0
o2
n-0.892
o5
o0
v0
n-0.65
n2.0
o2
o2
o2
n-0.7253034446
v0
o5
v1
n1.5899999999999999
o44
o0
o2
n-0.82
o5
o0
v0
n-1.06
n2.0
o2
n-0.056
o5
o0
v1
n-1.68
n2.0
o2
o2
o2
n-3.9014672912000004
v0
o5
v1
n1.12
o44
o16
o5
v0
n2.0
o2
o2
o2
n-0.2655849903
o5
v1
n-0.39
o5
v0
n2.0
o44
o2
n-1.0
v0
o2
o2
o2
o2
n0.03136447328
v0
o5
v1
n2.59
o0
v1
n-1.68
o44
o0
o2
n-0.82
o5
o0
v0
n-1.06
n2.0
o2
n-0.056
o5
o0
v1
n-1.68
n2.0
o2
o2
o2
o2
n9.40437004
v0
o5
v1
n1.07
o0
v1
n-0.86
o44
o0
o2
n-0.847
o5
o0
v0
n-0.659
n2.0
o2
n-1.3
o5
o0
v1
n-0.86
n2.0
o2
o2
o2
o2
n5.210728659
v0
o5
v1
n0.1299999999999999
o0
o2
n-1.62
v0
n1.58274
o44
o0
o2
n-0.81
o5
o0
v0
n-0.977
n2.0
o2
n-0.526
o5
o0
v1
n-1.34
n2.0
o2
o2
o2
o2
n3.1933340639999996
o5
v1
n2.55
o5
v0
n2.0
o0
v1
n-1.19
o44
o0
o2
n-0.72
o5
o0
v1
n-1.19
n2.0
o2
n-0.892
o5
o0
v0
n-0.65
n2.0
o2
o2
o2
o2
n-1.935129989
o5
v1
n0.07000000000000006
o5
v0
n2.0
o0
o2
n-1.694
v0
n1.116346
o44
o0
o2
n-0.847
o5
o0
v0
n-0.659
n2.0
o2
n-1.3
o5
o0
v1
n-0.86
n2.0
o2
o2
o2
o2
n-0.3626517223
o5
v1
n1.5899999999999999
o5
v0
n2.0
o0
o2
n-1.64
v0
n1.7384
o44
o0
o2
n-0.82
o5
o0
v0
n-1.06
n2.0
o2
n-0.056
o5
o0
v1
n-1.68
n2.0
o2
o2
o2
o2
n-0.410415747
v0
o5
v1
n-0.30000000000000004
o0
o2
n-34.6
v0
n31.832000000000004
o44
o0
o2
n-700.0
o5
o0
v1
n-1.108
n2.0
o2
n-17.3
o5
o0
v0
n-0.92
n2.0
o2
o2
o2
o2
n-1.8849541349999999
o5
v1
n1.5499999999999998
o5
v0
n3.0
o0
o2
n-1.784
v0
n1.1596
o44
o0
o2
n-0.72
o5
o0
v1
n-1.19
n2.0
o2
n-0.892
o5
o0
v0
n-0.65
n2.0
o2
o2
o2
o2
o2
n820.831494
v0
o5
v1
n0.7
o0
v1
n-1.108
o0
o2
n-34.6
v0
n31.832000000000004
o44
o0
o2
n-700.0
o5
o0
v1
n-1.108
n2.0
o2
n-17.3
o5
o0
v0
n-0.92
n2.0
o2
o2
o2
o2
o2
n0.01568223664
o5
v1
n2.59
o5
v0
n2.0
o0
v1
n-1.68
o0
o2
n-1.64
v0
n1.7384
o44
o0
o2
n-0.82
o5
o0
v0
n-1.06
n2.0
o2
n-0.056
o5
o0
v1
n-1.68
n2.0
o2
o2
o2
o2
o2
n4.70218502
o5
v1
n1.07
o5
v0
n2.0
o0
v1
n-0.86
o0
o2
n-1.694
v0
n1.116346
o44
o0
o2
n-0.847
o5
o0
v0
n-0.659
n2.0
o2
n-1.3
o5
o0
v1
n-0.86
n2.0
o2
o2
o2
o2
o2
n1.0644446879999998
o5
v1
n2.55
o5
v0
n3.0
o0
v1
n-1.19
o0
o2
n-1.784
v0
n1.1596
o44
o0
o2
n-0.72
o5
o0
v1
n-1.19
n2.0
o2
n-0.892
o5
o0
v0
n-0.65
n2.0
o2
o2
o2
o2
o2
n-4.851050043600001
v0
o5
v1
n1.13
o0
v1
n-1.34
o0
o2
n-1.62
v0
n1.58274
o44
o0
o2
n-0.81
o5
o0
v0
n-0.977
n2.0
o2
n-0.526
o5
o0
v1
n-1.34
n2.0
O11 0
o0
o54
5
o2
n-0.034315
o5
o0
o16
o3
n1
v1
n1
n0.14
o2
n4.0324
o5
o0
o16
o3
n1
v1
n1
n0.45
o2
n-2.798
o5
o0
o16
o3
n1
v1
n1
n0.84
o2
n2.245
o5
o0
o16
o3
n1
v1
n1
n1.28
o2
n0.41085
o5
o0
o16
o3
n1
v1
n1
n7.92
n1.0
O12 0
o44
o54
6
o2
n-3.316
o5
o0
o16
o3
n1
v1
n1
n0.432
o2
n-8.324
o5
o0
o16
o3
n1
v1
n1
n1.085
o2
n-184.27
o5
o0
o16
o3
n1
v1
n1
n3.78
o2
n350.11
o5
o0
o16
o3
n1
v1
n1
n4.42
o2
n-287.08
o5
o0
o16
o3
n1
v1
n1
n5.1
o2
n-267.25
o5
o0
o16
o3
n1
v1
n1
n13.0
O13 0
n0.0
x2
0 1.00000001
1 1.0
r
b
3
3
k1
0
G0 2
0 0
1 -39.55376118918867
G1 1
0 0
G2 1
0 0
G3 1
1 0
G4 1
1 0
G5 2
0 0
1 0
G6 2
0 0
1 0
G7 2
0 0
1 0
G8 2
0 0
1 0
G9 2
0 0
1 0
G10 2
0 0
1 0
G11 1
1 0
G12 1
1 0
